Cu                                      
   1.00000000000000     
    15.3430999999999997    0.0000000000000000    0.0000000000000000
    -7.6715499999999999   13.2875143730000005    0.0000000000000000
     0.0000000000000000    0.0000000000000000   24.4292000000000016
   Cu
   108
Selective dynamics
Direct
  0.9999996197482027  0.0000003802517973  0.1743671852479537   T   T   T
  0.1111099999999965  0.0555599999999998  0.0906499999999966   F   F   F
  0.0555599999999998  0.1111099999999965  0.0000000000000000   F   F   F
  0.1667373308378329  0.9999984767713793  0.1743898652643083   T   T   T
  0.2777799999999999  0.0555599999999998  0.0906499999999966   F   F   F
  0.2222200000000001  0.1111099999999965  0.0000000000000000   F   F   F
  0.3332611052629924  0.0000005533703108  0.1743905713477971   T   T   T
  0.4444400000000002  0.0555599999999998  0.0906499999999966   F   F   F
  0.3888900000000035  0.1111099999999965  0.0000000000000000   F   F   F
  0.4999996197482027  0.0000003802517973  0.1743671852479537   T   T   T
  0.6111100000000036  0.0555599999999998  0.0906499999999966   F   F   F
  0.5555599999999998  0.1111099999999965  0.0000000000000000   F   F   F
  0.6667373308378329  0.9999984767713793  0.1743898652643083   T   T   T
  0.7777799999999999  0.0555599999999998  0.0906499999999966   F   F   F
  0.7222200000000001  0.1111099999999965  0.0000000000000000   F   F   F
  0.8332611052629924  0.0000005533703108  0.1743905713477971   T   T   T
  0.9444400000000002  0.0555599999999998  0.0906499999999966   F   F   F
  0.8888900000000035  0.1111099999999965  0.0000000000000000   F   F   F
  0.9999994466296891  0.1667388947370076  0.1743905713477971   T   T   T
  0.1111099999999965  0.2222200000000001  0.0906499999999966   F   F   F
  0.0555599999999998  0.2777799999999999  0.0000000000000000   F   F   F
  0.1667364282347029  0.1667371294693021  0.1743913575089658   T   T   T
  0.2777799999999999  0.2222200000000001  0.0906499999999966   F   F   F
  0.2222200000000001  0.2777799999999999  0.0000000000000000   F   F   F
  0.3333334794096187  0.1666665205903813  0.1744028200167616   T   T   T
  0.4444400000000002  0.2222200000000001  0.0906499999999966   F   F   F
  0.3888900000000035  0.2777799999999999  0.0000000000000000   F   F   F
  0.4999994466296891  0.1667388947370076  0.1743905713477971   T   T   T
  0.6111100000000036  0.2222200000000001  0.0906499999999966   F   F   F
  0.5555599999999998  0.2777799999999999  0.0000000000000000   F   F   F
  0.6667364282347029  0.1667371294693021  0.1743913575089658   T   T   T
  0.7777799999999999  0.2222200000000001  0.0906499999999966   F   F   F
  0.7222200000000001  0.2777799999999999  0.0000000000000000   F   F   F
  0.8333334794096187  0.1666665205903813  0.1744028200167616   T   T   T
  0.9444400000000002  0.2222200000000001  0.0906499999999966   F   F   F
  0.8888900000000035  0.2777799999999999  0.0000000000000000   F   F   F
  0.0000015232286207  0.3332626691621671  0.1743898652643083   T   T   T
  0.1111099999999965  0.3888900000000035  0.0906499999999966   F   F   F
  0.0555599999999998  0.4444400000000002  0.0000000000000000   F   F   F
  0.1666662719109297  0.3333337280890702  0.1744017365964807   T   T   T
  0.2777799999999999  0.3888900000000035  0.0906499999999966   F   F   F
  0.2222200000000001  0.4444400000000002  0.0000000000000000   F   F   F
  0.3332628705306980  0.3332635717652970  0.1743913575089658   T   T   T
  0.4444400000000002  0.3888900000000035  0.0906499999999966   F   F   F
  0.3888900000000035  0.4444400000000002  0.0000000000000000   F   F   F
  0.5000015232286207  0.3332626691621671  0.1743898652643083   T   T   T
  0.6111099999999965  0.3888900000000035  0.0906499999999966   F   F   F
  0.5555599999999998  0.4444400000000002  0.0000000000000000   F   F   F
  0.6666662719109296  0.3333337280890702  0.1744017365964807   T   T   T
  0.7777799999999999  0.3888900000000035  0.0906499999999966   F   F   F
  0.7222200000000001  0.4444400000000002  0.0000000000000000   F   F   F
  0.8332628705306980  0.3332635717652970  0.1743913575089658   T   T   T
  0.9444400000000002  0.3888900000000035  0.0906499999999966   F   F   F
  0.8888900000000035  0.4444400000000002  0.0000000000000000   F   F   F
  0.9999996197482027  0.5000003802518044  0.1743671852479537   T   T   T
  0.1111099999999965  0.5555599999999998  0.0906499999999966   F   F   F
  0.0555599999999998  0.6111100000000036  0.0000000000000000   F   F   F
  0.1667373308378329  0.4999984767713794  0.1743898652643083   T   T   T
  0.2777799999999999  0.5555599999999998  0.0906499999999966   F   F   F
  0.2222200000000001  0.6111100000000036  0.0000000000000000   F   F   F
  0.3332611052629924  0.5000005533703109  0.1743905713477971   T   T   T
  0.4444400000000002  0.5555599999999998  0.0906499999999966   F   F   F
  0.3888900000000035  0.6111100000000036  0.0000000000000000   F   F   F
  0.4999996197482027  0.5000003802518044  0.1743671852479537   T   T   T
  0.6111100000000036  0.5555599999999998  0.0906499999999966   F   F   F
  0.5555599999999998  0.6111100000000036  0.0000000000000000   F   F   F
  0.6667373308378329  0.4999984767713794  0.1743898652643083   T   T   T
  0.7777799999999999  0.5555599999999998  0.0906499999999966   F   F   F
  0.7222200000000001  0.6111100000000036  0.0000000000000000   F   F   F
  0.8332611052629995  0.5000005533703109  0.1743905713477971   T   T   T
  0.9444400000000002  0.5555599999999998  0.0906499999999966   F   F   F
  0.8888900000000035  0.6111100000000036  0.0000000000000000   F   F   F
  0.9999994466296891  0.6667388947370076  0.1743905713477971   T   T   T
  0.1111099999999965  0.7222200000000001  0.0906499999999966   F   F   F
  0.0555599999999998  0.7777799999999999  0.0000000000000000   F   F   F
  0.1667364282347029  0.6667371294693020  0.1743913575089658   T   T   T
  0.2777799999999999  0.7222200000000001  0.0906499999999966   F   F   F
  0.2222200000000001  0.7777799999999999  0.0000000000000000   F   F   F
  0.3333334794096187  0.6666665205903813  0.1744028200167616   T   T   T
  0.4444400000000002  0.7222200000000001  0.0906499999999966   F   F   F
  0.3888900000000035  0.7777799999999999  0.0000000000000000   F   F   F
  0.4999994466296891  0.6667388947370076  0.1743905713477971   T   T   T
  0.6111100000000036  0.7222200000000001  0.0906499999999966   F   F   F
  0.5555599999999998  0.7777799999999999  0.0000000000000000   F   F   F
  0.6667364282347029  0.6667371294693020  0.1743913575089658   T   T   T
  0.7777799999999999  0.7222200000000001  0.0906499999999966   F   F   F
  0.7222200000000001  0.7777799999999999  0.0000000000000000   F   F   F
  0.8333334794096258  0.6666665205903813  0.1744028200167616   T   T   T
  0.9444400000000002  0.7222200000000001  0.0906499999999966   F   F   F
  0.8888900000000035  0.7777799999999999  0.0000000000000000   F   F   F
  0.0000015232286207  0.8332626691621742  0.1743898652643083   T   T   T
  0.1111099999999965  0.8888900000000035  0.0906499999999966   F   F   F
  0.0555599999999998  0.9444400000000002  0.0000000000000000   F   F   F
  0.1666662719109297  0.8333337280890775  0.1744017365964807   T   T   T
  0.2777799999999999  0.8888900000000035  0.0906499999999966   F   F   F
  0.2222200000000001  0.9444400000000002  0.0000000000000000   F   F   F
  0.3332628705306980  0.8332635717653042  0.1743913575089658   T   T   T
  0.4444400000000002  0.8888900000000035  0.0906499999999966   F   F   F
  0.3888900000000035  0.9444400000000002  0.0000000000000000   F   F   F
  0.5000015232286207  0.8332626691621742  0.1743898652643083   T   T   T
  0.6111100000000036  0.8888900000000035  0.0906499999999966   F   F   F
  0.5555599999999998  0.9444400000000002  0.0000000000000000   F   F   F
  0.6666662719109296  0.8333337280890775  0.1744017365964807   T   T   T
  0.7777799999999999  0.8888900000000035  0.0906499999999966   F   F   F
  0.7222200000000001  0.9444400000000002  0.0000000000000000   F   F   F
  0.8332628705307051  0.8332635717653042  0.1743913575089658   T   T   T
  0.9444400000000002  0.8888900000000035  0.0906499999999966   F   F   F
  0.8888900000000035  0.9444400000000002  0.0000000000000000   F   F   F
 
  0.00000000E+00  0.00000000E+00  0.00000000E+00
  0.00000000E+00  0.00000000E+00  0.00000000E+00
  0.00000000E+00  0.00000000E+00  0.00000000E+00
  0.00000000E+00  0.00000000E+00  0.00000000E+00
  0.00000000E+00  0.00000000E+00  0.00000000E+00
  0.00000000E+00  0.00000000E+00  0.00000000E+00
  0.00000000E+00  0.00000000E+00  0.00000000E+00
  0.00000000E+00  0.00000000E+00  0.00000000E+00
  0.00000000E+00  0.00000000E+00  0.00000000E+00
  0.00000000E+00  0.00000000E+00  0.00000000E+00
  0.00000000E+00  0.00000000E+00  0.00000000E+00
  0.00000000E+00  0.00000000E+00  0.00000000E+00
  0.00000000E+00  0.00000000E+00  0.00000000E+00
  0.00000000E+00  0.00000000E+00  0.00000000E+00
  0.00000000E+00  0.00000000E+00  0.00000000E+00
  0.00000000E+00  0.00000000E+00  0.00000000E+00
  0.00000000E+00  0.00000000E+00  0.00000000E+00
  0.00000000E+00  0.00000000E+00  0.00000000E+00
  0.00000000E+00  0.00000000E+00  0.00000000E+00
  0.00000000E+00  0.00000000E+00  0.00000000E+00
  0.00000000E+00  0.00000000E+00  0.00000000E+00
  0.00000000E+00  0.00000000E+00  0.00000000E+00
  0.00000000E+00  0.00000000E+00  0.00000000E+00
  0.00000000E+00  0.00000000E+00  0.00000000E+00
  0.00000000E+00  0.00000000E+00  0.00000000E+00
  0.00000000E+00  0.00000000E+00  0.00000000E+00
  0.00000000E+00  0.00000000E+00  0.00000000E+00
  0.00000000E+00  0.00000000E+00  0.00000000E+00
  0.00000000E+00  0.00000000E+00  0.00000000E+00
  0.00000000E+00  0.00000000E+00  0.00000000E+00
  0.00000000E+00  0.00000000E+00  0.00000000E+00
  0.00000000E+00  0.00000000E+00  0.00000000E+00
  0.00000000E+00  0.00000000E+00  0.00000000E+00
  0.00000000E+00  0.00000000E+00  0.00000000E+00
  0.00000000E+00  0.00000000E+00  0.00000000E+00
  0.00000000E+00  0.00000000E+00  0.00000000E+00
  0.00000000E+00  0.00000000E+00  0.00000000E+00
  0.00000000E+00  0.00000000E+00  0.00000000E+00
  0.00000000E+00  0.00000000E+00  0.00000000E+00
  0.00000000E+00  0.00000000E+00  0.00000000E+00
  0.00000000E+00  0.00000000E+00  0.00000000E+00
  0.00000000E+00  0.00000000E+00  0.00000000E+00
  0.00000000E+00  0.00000000E+00  0.00000000E+00
  0.00000000E+00  0.00000000E+00  0.00000000E+00
  0.00000000E+00  0.00000000E+00  0.00000000E+00
  0.00000000E+00  0.00000000E+00  0.00000000E+00
  0.00000000E+00  0.00000000E+00  0.00000000E+00
  0.00000000E+00  0.00000000E+00  0.00000000E+00
  0.00000000E+00  0.00000000E+00  0.00000000E+00
  0.00000000E+00  0.00000000E+00  0.00000000E+00
  0.00000000E+00  0.00000000E+00  0.00000000E+00
  0.00000000E+00  0.00000000E+00  0.00000000E+00
  0.00000000E+00  0.00000000E+00  0.00000000E+00
  0.00000000E+00  0.00000000E+00  0.00000000E+00
  0.00000000E+00  0.00000000E+00  0.00000000E+00
  0.00000000E+00  0.00000000E+00  0.00000000E+00
  0.00000000E+00  0.00000000E+00  0.00000000E+00
  0.00000000E+00  0.00000000E+00  0.00000000E+00
  0.00000000E+00  0.00000000E+00  0.00000000E+00
  0.00000000E+00  0.00000000E+00  0.00000000E+00
  0.00000000E+00  0.00000000E+00  0.00000000E+00
  0.00000000E+00  0.00000000E+00  0.00000000E+00
  0.00000000E+00  0.00000000E+00  0.00000000E+00
  0.00000000E+00  0.00000000E+00  0.00000000E+00
  0.00000000E+00  0.00000000E+00  0.00000000E+00
  0.00000000E+00  0.00000000E+00  0.00000000E+00
  0.00000000E+00  0.00000000E+00  0.00000000E+00
  0.00000000E+00  0.00000000E+00  0.00000000E+00
  0.00000000E+00  0.00000000E+00  0.00000000E+00
  0.00000000E+00  0.00000000E+00  0.00000000E+00
  0.00000000E+00  0.00000000E+00  0.00000000E+00
  0.00000000E+00  0.00000000E+00  0.00000000E+00
  0.00000000E+00  0.00000000E+00  0.00000000E+00
  0.00000000E+00  0.00000000E+00  0.00000000E+00
  0.00000000E+00  0.00000000E+00  0.00000000E+00
  0.00000000E+00  0.00000000E+00  0.00000000E+00
  0.00000000E+00  0.00000000E+00  0.00000000E+00
  0.00000000E+00  0.00000000E+00  0.00000000E+00
  0.00000000E+00  0.00000000E+00  0.00000000E+00
  0.00000000E+00  0.00000000E+00  0.00000000E+00
  0.00000000E+00  0.00000000E+00  0.00000000E+00
  0.00000000E+00  0.00000000E+00  0.00000000E+00
  0.00000000E+00  0.00000000E+00  0.00000000E+00
  0.00000000E+00  0.00000000E+00  0.00000000E+00
  0.00000000E+00  0.00000000E+00  0.00000000E+00
  0.00000000E+00  0.00000000E+00  0.00000000E+00
  0.00000000E+00  0.00000000E+00  0.00000000E+00
  0.00000000E+00  0.00000000E+00  0.00000000E+00
  0.00000000E+00  0.00000000E+00  0.00000000E+00
  0.00000000E+00  0.00000000E+00  0.00000000E+00
  0.00000000E+00  0.00000000E+00  0.00000000E+00
  0.00000000E+00  0.00000000E+00  0.00000000E+00
  0.00000000E+00  0.00000000E+00  0.00000000E+00
  0.00000000E+00  0.00000000E+00  0.00000000E+00
  0.00000000E+00  0.00000000E+00  0.00000000E+00
  0.00000000E+00  0.00000000E+00  0.00000000E+00
  0.00000000E+00  0.00000000E+00  0.00000000E+00
  0.00000000E+00  0.00000000E+00  0.00000000E+00
  0.00000000E+00  0.00000000E+00  0.00000000E+00
  0.00000000E+00  0.00000000E+00  0.00000000E+00
  0.00000000E+00  0.00000000E+00  0.00000000E+00
  0.00000000E+00  0.00000000E+00  0.00000000E+00
  0.00000000E+00  0.00000000E+00  0.00000000E+00
  0.00000000E+00  0.00000000E+00  0.00000000E+00
  0.00000000E+00  0.00000000E+00  0.00000000E+00
  0.00000000E+00  0.00000000E+00  0.00000000E+00
  0.00000000E+00  0.00000000E+00  0.00000000E+00
  0.00000000E+00  0.00000000E+00  0.00000000E+00
