 C Cu  H  N Si 
 1.0000000000000000
    15.3430999999999997    0.0000000000000000    0.0000000000000000
    -7.6715499999999999   13.2875143730000005    0.0000000000000000
     0.0000000000000000    0.0000000000000000   24.4292000000000016
 C   Cu  H   N   Si 
   4 108  14   2   1
Selective dynamics
Direct
  0.3493328433303019  0.3470069204794318  0.3790728928895161   T   T   T
  0.3970471768063409  0.5188901650021432  0.4032826823737990   T   T   T
  0.6717844748137379  0.6138032254461261  0.4306987186414539   T   T   T
  0.6666272435457896  0.7049725792199155  0.3503183165202467   T   T   T
  0.9999996197482027  0.0000003802517973  0.1743671852479537   T   T   T
  0.3888900000000035  0.7777799999999999  0.0000000000000000   T   T   T
  0.4444400000000002  0.7222200000000001  0.0906499999999966   F   F   F
  0.3333334794096187  0.6666665205903813  0.1744028200167616   T   T   T
  0.2222200000000001  0.7777799999999999  0.0000000000000000   T   T   T
  0.2777799999999999  0.7222200000000001  0.0906499999999966   F   F   F
  0.1667364282347029  0.6667371294693020  0.1743913575089658   T   T   T
  0.0555599999999998  0.7777799999999999  0.0000000000000000   T   T   T
  0.1111099999999965  0.7222200000000001  0.0906499999999966   F   F   F
  0.9999994466296893  0.6667388947370076  0.1743905713477971   T   T   T
  0.8888900000000034  0.6111100000000035  0.0000000000000000   T   T   T
  0.9444400000000001  0.5555599999999998  0.0906499999999966   F   F   F
  0.7222200000000000  0.6111100000000035  0.0000000000000000   T   T   T
  0.4999994466296891  0.6667388947370076  0.1743905713477971   T   T   T
  0.7777799999999999  0.5555599999999998  0.0906499999999966   F   F   F
  0.6667373308378329  0.4999984767713794  0.1743898652643083   T   T   T
  0.5555599999999997  0.6111100000000035  0.0000000000000000   T   T   T
  0.4999996197482027  0.5000003802518044  0.1743671852479537   T   T   T
  0.3888900000000035  0.6111100000000035  0.0000000000000000   T   T   T
  0.4444400000000002  0.5555599999999998  0.0906499999999966   F   F   F
  0.3332611052629924  0.5000005533703109  0.1743905713477971   T   T   T
  0.2222200000000001  0.6111100000000035  0.0000000000000000   T   T   T
  0.2777799999999999  0.5555599999999998  0.0906499999999966   F   F   F
  0.8332611052629996  0.5000005533703109  0.1743905713477971   T   T   T
  0.6111100000000036  0.7222200000000001  0.0906499999999966   F   F   F
  0.7777799999999999  0.7222200000000001  0.0906499999999966   F   F   F
  0.6667364282347029  0.6667371294693020  0.1743913575089658   T   T   T
  0.8888900000000035  0.9444400000000002  0.0000000000000000   T   T   T
  0.9444400000000003  0.8888900000000035  0.0906499999999966   F   F   F
  0.8332628705307051  0.8332635717653042  0.1743913575089658   T   T   T
  0.7222200000000001  0.9444400000000002  0.0000000000000000   T   T   T
  0.7777799999999999  0.8888900000000035  0.0906499999999966   F   F   F
  0.6666662719109296  0.8333337280890775  0.1744017365964807   T   T   T
  0.5555599999999998  0.9444400000000002  0.0000000000000000   T   T   T
  0.6111100000000036  0.8888900000000035  0.0906499999999966   F   F   F
  0.5000015232286207  0.8332626691621742  0.1743898652643083   T   T   T
  0.3888900000000035  0.9444400000000002  0.0000000000000000   T   T   T
  0.4444400000000002  0.8888900000000035  0.0906499999999966   F   F   F
  0.3332628705306980  0.8332635717653042  0.1743913575089658   T   T   T
  0.2222200000000001  0.9444400000000002  0.0000000000000000   T   T   T
  0.2777799999999999  0.8888900000000035  0.0906499999999966   F   F   F
  0.1666662719109297  0.8333337280890775  0.1744017365964807   T   T   T
  0.0555599999999998  0.9444400000000002  0.0000000000000000   T   T   T
  0.1111099999999965  0.8888900000000035  0.0906499999999966   F   F   F
  0.0000015232286207  0.8332626691621742  0.1743898652643083   T   T   T
  0.8888900000000035  0.7777799999999999  0.0000000000000000   T   T   T
  0.9444400000000001  0.7222200000000001  0.0906499999999966   F   F   F
  0.8333334794096259  0.6666665205903813  0.1744028200167616   T   T   T
  0.7222200000000001  0.7777799999999999  0.0000000000000000   T   T   T
  0.1667373308378329  0.4999984767713794  0.1743898652643083   T   T   T
  0.5555599999999998  0.7777799999999999  0.0000000000000000   T   T   T
  0.0555599999999997  0.6111100000000035  0.0000000000000000   T   T   T
  0.6111100000000036  0.5555599999999998  0.0906499999999966   F   F   F
  0.9999996197482027  0.5000003802518044  0.1743671852479537   T   T   T
  0.4444400000000002  0.2222200000000001  0.0906499999999966   F   F   F
  0.3333334794096187  0.1666665205903813  0.1744028200167616   T   T   T
  0.2222200000000001  0.2777799999999999  0.0000000000000000   T   T   T
  0.2777799999999999  0.2222200000000001  0.0906499999999966   F   F   F
  0.1667364282347029  0.1667371294693021  0.1743913575089658   T   T   T
  0.1111099999999965  0.5555599999999998  0.0906499999999966   F   F   F
  0.1111099999999965  0.2222200000000001  0.0906499999999966   F   F   F
  0.9999994466296892  0.1667388947370076  0.1743905713477971   T   T   T
  0.8888900000000035  0.1111099999999965  0.0000000000000000   T   T   T
  0.9444400000000003  0.0555599999999998  0.0906499999999966   F   F   F
  0.8332611052629924  0.0000005533703108  0.1743905713477971   T   T   T
  0.7222200000000001  0.1111099999999965  0.0000000000000000   T   T   T
  0.7777799999999999  0.0555599999999998  0.0906499999999966   F   F   F
  0.6667373308378329  0.9999984767713793  0.1743898652643083   T   T   T
  0.5555599999999998  0.1111099999999965  0.0000000000000000   T   T   T
  0.6111100000000036  0.0555599999999998  0.0906499999999966   F   F   F
  0.4999996197482027  0.0000003802517973  0.1743671852479537   T   T   T
  0.3888900000000035  0.1111099999999965  0.0000000000000000   T   T   T
  0.4444400000000002  0.0555599999999998  0.0906499999999966   F   F   F
  0.3332611052629924  0.0000005533703108  0.1743905713477971   T   T   T
  0.2222200000000001  0.1111099999999965  0.0000000000000000   T   T   T
  0.2777799999999999  0.0555599999999998  0.0906499999999966   F   F   F
  0.1667373308378329  0.9999984767713793  0.1743898652643083   T   T   T
  0.0555599999999998  0.1111099999999965  0.0000000000000000   T   T   T
  0.1111099999999965  0.0555599999999998  0.0906499999999966   F   F   F
  0.3888900000000035  0.2777799999999999  0.0000000000000000   T   T   T
  0.4999994466296891  0.1667388947370076  0.1743905713477971   T   T   T
  0.0555599999999998  0.2777799999999999  0.0000000000000000   T   T   T
  0.5555599999999998  0.2777799999999999  0.0000000000000000   T   T   T
  0.8888900000000035  0.4444400000000002  0.0000000000000000   T   T   T
  0.9444400000000003  0.3888900000000035  0.0906499999999966   F   F   F
  0.8332628705306980  0.3332635717652970  0.1743913575089658   T   T   T
  0.7222200000000001  0.4444400000000002  0.0000000000000000   T   T   T
  0.6111100000000036  0.2222200000000001  0.0906499999999966   F   F   F
  0.6666662719109296  0.3333337280890702  0.1744017365964807   T   T   T
  0.5555599999999998  0.4444400000000002  0.0000000000000000   T   T   T
  0.6111099999999965  0.3888900000000035  0.0906499999999966   F   F   F
  0.5000015232286207  0.3332626691621671  0.1743898652643083   T   T   T
  0.3888900000000035  0.4444400000000002  0.0000000000000000   T   T   T
  0.4444400000000002  0.3888900000000035  0.0906499999999966   F   F   F
  0.3332628705306980  0.3332635717652970  0.1743913575089658   T   T   T
  0.7777799999999999  0.3888900000000035  0.0906499999999966   F   F   F
  0.2777799999999999  0.3888900000000035  0.0906499999999966   F   F   F
  0.2222200000000001  0.4444400000000002  0.0000000000000000   T   T   T
  0.6667364282347029  0.1667371294693021  0.1743913575089658   T   T   T
  0.7777799999999999  0.2222200000000001  0.0906499999999966   F   F   F
  0.8333334794096187  0.1666665205903813  0.1744028200167616   T   T   T
  0.9444400000000003  0.2222200000000001  0.0906499999999966   F   F   F
  0.7222200000000001  0.2777799999999999  0.0000000000000000   T   T   T
  0.0000015232286207  0.3332626691621671  0.1743898652643083   T   T   T
  0.1111099999999965  0.3888900000000035  0.0906499999999966   F   F   F
  0.0555599999999998  0.4444400000000002  0.0000000000000000   T   T   T
  0.1666662719109297  0.3333337280890702  0.1744017365964807   T   T   T
  0.8888900000000035  0.2777799999999999  0.0000000000000000   T   T   T
  0.2910019788673379  0.3379392686032900  0.3491303469751973   T   T   T
  0.4627336871512617  0.5943710855382661  0.4090192633170687   T   T   T
  0.3794549592864795  0.2986801999845580  0.3657007577004434   T   T   T
  0.3113072376000763  0.3182294349042600  0.4188831354787296   T   T   T
  0.3444699825063561  0.5253252908232096  0.3746292156385859   T   T   T
  0.3584534265668490  0.4934974364554195  0.4431965945623975   T   T   T
  0.7550606317832115  0.6553230983817316  0.4314933051651973   T   T   T
  0.5365080116625114  0.5231147953715641  0.2893114008091845   T   T   T
  0.6453935374279745  0.5380071000261762  0.4471564904116256   T   T   T
  0.7494501278754685  0.7489916916290726  0.3460951399249598   T   T   T
  0.6433383465702216  0.7509510318192051  0.3745826824606737   T   T   T
  0.6334802575746767  0.6945539454094261  0.3093216849301336   T   T   T
  0.5663991890117661  0.4139593458808148  0.3505912509966574   T   T   T
  0.6460993763337208  0.6528984421866241  0.4589599549513602   T   T   T
  0.4298298675357952  0.4505418772679133  0.3839923266538592   T   T   T
  0.6341815478203553  0.6078849008798008  0.3755323784862072   T   T   T
  0.5416448942257832  0.4967068945122712  0.3479442634224616   T   T   T
